AGGAC = 1.0
ALGO = N
BPARAM = 26.26
EDIFF = 1e-05
EDIFFG = -0.001
ENCUT = 500
GGA = PE
IBRION = 1
POTIM = 0.1
ICHARG = 1
ISIF = 2
ISMEAR = 1
SIGMA = 0.1
ISPIN = 2
LASPH = True
LCHARG = False
LMIXTAU = True
LORBIT = 11
LREAL = False
LUSE_VDW = True
LWAVE = False
#MAGMOM = 5*1.0 2*0.6
METAGGA = MS2
NCORE = 4
MAXMIX = 7
##MSX_CFC = 0.391596228
##MSX_CFE = 0.9104
##MSX_RKAPPA = 0.2501
NELM = 200
NSW = 200
PREC = A